(set-info :source |printed by MathSAT|)
(declare-fun call_intloop6counter.ite.next () Int)
(declare-fun param_x () Bool)
(declare-fun call_intloop6counter.flby.next () Int)
(declare-fun call_loop6counter.out.next () Bool)
(declare-fun call_loop6counter.a.next () Bool)
(declare-fun call_intloop6counter.ite3.next () Int)
(declare-fun call_loop6counter.c () Bool)
(declare-fun call_intloop6counter.ite2.next () Int)
(declare-fun d () Bool)
(declare-fun call_loop6counter.out () Bool)
(declare-fun b.next () Bool)
(declare-fun call_loop6counter.b.next () Bool)
(declare-fun call_loop6counter.flby2.next () Bool)
(declare-fun _OK_ () Bool)
(declare-fun _OK_.next () Bool)
(declare-fun call_loop6counter.flby3.next () Bool)
(declare-fun call_loop6counter.flby3 () Bool)
(declare-fun call_loop6counter.flby.next () Bool)
(declare-fun call_loop6counter.flby2 () Bool)
(declare-fun call_loop6counter.b () Bool)
(declare-fun call_intloop6counter.time () Int)
(declare-fun call_loop6counter.c.next () Bool)
(declare-fun call_loop6counter.flby () Bool)
(declare-fun call_intloop6counter.out () Bool)
(declare-fun b () Bool)
(declare-fun param_x.next () Bool)
(declare-fun call_loop6counter.a () Bool)
(declare-fun call_intloop6counter.out.next () Bool)
(declare-fun call_intloop6counter.flby () Int)
(declare-fun call_intloop6counter.time.next () Int)
(declare-fun d.next () Bool)
(define-fun .def_264 () Bool (= call_intloop6counter.flby.next call_intloop6counter.time.next))
(define-fun .def_261 () Bool (= call_intloop6counter.time.next 5))
(define-fun .def_262 () Bool (= call_intloop6counter.out.next .def_261))
(define-fun .def_258 () Bool (= call_loop6counter.flby3.next call_loop6counter.c.next))
(define-fun .def_256 () Bool (= call_loop6counter.flby2.next call_loop6counter.b.next))
(define-fun .def_253 () Bool (= call_loop6counter.flby.next call_loop6counter.a.next))
(define-fun .def_250 () Bool (and call_loop6counter.a.next call_loop6counter.c.next))
(define-fun .def_251 () Bool (= call_loop6counter.out.next .def_250))
(define-fun .def_246 () Bool (= d.next call_intloop6counter.out.next))
(define-fun .def_243 () Bool (= b.next call_loop6counter.out.next))
(define-fun .def_239 () Bool (not param_x.next))
(define-fun .def_237 () Bool (= b.next d.next))
(define-fun .def_240 () Bool (or .def_237 .def_239))
(define-fun .def_241 () Bool (= _OK_.next .def_240))
(define-fun .def_244 () Bool (and .def_241 .def_243))
(define-fun .def_247 () Bool (and .def_244 .def_246))
(define-fun .def_252 () Bool (and .def_247 .def_251))
(define-fun .def_254 () Bool (and .def_252 .def_253))
(define-fun .def_257 () Bool (and .def_254 .def_256))
(define-fun .def_259 () Bool (and .def_257 .def_258))
(define-fun .def_263 () Bool (and .def_259 .def_262))
(define-fun .def_265 () Bool (and .def_263 .def_264))
(define-fun .def_176 () Bool (= call_intloop6counter.time call_intloop6counter.flby))
(define-fun .def_172 () Bool (= call_intloop6counter.time 5))
(define-fun .def_173 () Bool (= call_intloop6counter.out .def_172))
(define-fun .def_169 () Bool (= call_loop6counter.c call_loop6counter.flby3))
(define-fun .def_166 () Bool (= call_loop6counter.b call_loop6counter.flby2))
(define-fun .def_162 () Bool (= call_loop6counter.a call_loop6counter.flby))
(define-fun .def_158 () Bool (and call_loop6counter.a call_loop6counter.c))
(define-fun .def_159 () Bool (= call_loop6counter.out .def_158))
(define-fun .def_154 () Bool (= d call_intloop6counter.out))
(define-fun .def_151 () Bool (= b call_loop6counter.out))
(define-fun .def_147 () Bool (not param_x))
(define-fun .def_145 () Bool (= b d))
(define-fun .def_148 () Bool (or .def_145 .def_147))
(define-fun .def_149 () Bool (= _OK_ .def_148))
(define-fun .def_152 () Bool (and .def_149 .def_151))
(define-fun .def_155 () Bool (and .def_152 .def_154))
(define-fun .def_160 () Bool (and .def_155 .def_159))
(define-fun .def_163 () Bool (and .def_160 .def_162))
(define-fun .def_167 () Bool (and .def_163 .def_166))
(define-fun .def_170 () Bool (and .def_167 .def_169))
(define-fun .def_174 () Bool (and .def_170 .def_173))
(define-fun .def_177 () Bool (and .def_174 .def_176))
(define-fun .def_266 () Bool (and .def_177 .def_265))
(define-fun .def_232 () Bool (= call_intloop6counter.ite3.next call_intloop6counter.flby.next))
(define-fun .def_227 () Bool (= call_intloop6counter.ite2.next call_intloop6counter.ite3.next))
(define-fun .def_228 () Bool (or .def_172 .def_227))
(define-fun .def_224 () Bool (not .def_172))
(define-fun .def_223 () Bool (= call_intloop6counter.ite3.next 2))
(define-fun .def_225 () Bool (or .def_223 .def_224))
(define-fun .def_216 () Bool (= call_intloop6counter.time 4))
(define-fun .def_219 () Bool (not .def_216))
(define-fun .def_218 () Bool (= call_intloop6counter.ite.next call_intloop6counter.ite2.next))
(define-fun .def_220 () Bool (or .def_218 .def_219))
(define-fun .def_213 () Int (* (- 1) call_intloop6counter.ite2.next))
(define-fun .def_214 () Int (+ call_intloop6counter.time .def_213))
(define-fun .def_215 () Bool (= .def_214 (- 1)))
(define-fun .def_217 () Bool (or .def_215 .def_216))
(define-fun .def_221 () Bool (and .def_217 .def_220))
(define-fun .def_226 () Bool (and .def_221 .def_225))
(define-fun .def_229 () Bool (and .def_226 .def_228))
(define-fun .def_187 () Bool (not call_loop6counter.c))
(define-fun .def_210 () Bool (= .def_187 call_loop6counter.flby3.next))
(define-fun .def_203 () Bool (and call_loop6counter.b .def_187))
(define-fun .def_201 () Bool (not call_loop6counter.b))
(define-fun .def_202 () Bool (and call_loop6counter.c .def_201))
(define-fun .def_204 () Bool (or .def_202 .def_203))
(define-fun .def_200 () Bool (and .def_147 call_loop6counter.a))
(define-fun .def_205 () Bool (or .def_200 .def_204))
(define-fun .def_207 () Bool (= .def_205 call_loop6counter.flby2.next))
(define-fun .def_196 () Bool (= call_intloop6counter.ite.next 3))
(define-fun .def_197 () Bool (or param_x .def_196))
(define-fun .def_194 () Bool (= call_intloop6counter.ite.next 5))
(define-fun .def_195 () Bool (or .def_147 .def_194))
(define-fun .def_198 () Bool (and .def_195 .def_197))
(define-fun .def_189 () Bool (and call_loop6counter.c call_loop6counter.b))
(define-fun .def_186 () Bool (and param_x call_loop6counter.a))
(define-fun .def_188 () Bool (and .def_186 .def_187))
(define-fun .def_190 () Bool (or .def_188 .def_189))
(define-fun .def_192 () Bool (= .def_190 call_loop6counter.flby.next))
(define-fun .def_199 () Bool (and .def_192 .def_198))
(define-fun .def_208 () Bool (and .def_199 .def_207))
(define-fun .def_211 () Bool (and .def_208 .def_210))
(define-fun .def_230 () Bool (and .def_211 .def_229))
(define-fun .def_233 () Bool (and .def_230 .def_232))
(define-fun .def_267 () Bool (and .def_233 .def_266))
(assert .def_267)
